%griglia rappresentata come array unidimensionale
board = [                 
 _,  _,  0,  _,  _,  _,   _,  _,  
 0,  _,  0,  _,  _,  _,   0,  _,
 _,  _,  _,  _,  0,  _,   0,  _,
 _,  0,  _,  _,  _,  0,   0,  0,
 _,  _,  _,  0,  _,  0,   _,  0,
 0,  0,  _,  _ , _,  _,   _,  _,
];

%ogni riga rappresenta un segmento di caselle contigue
%across
segments = [|   
 1,   2,   0,  0,  0,  0|
 4,   5,   6,  7,  8,  0|
12,  13,  14,  0,  0,  0|
17,  18,  19, 20,  0,  0|
27,  28,  29,  0,  0,  0|
33,  34,  35,  0,  0,  0|
43,  44,  45, 46, 47, 48|
%down
 2,  10,  18,  0,  0,  0|
 4,  12,  20, 28,  0,  0|
 5,  13,   0,  0,  0,  0|
 6,  14,  22,  0,  0,  0|
 8,  16,  24,  0,  0,  0|
17,  25,  33,  0,  0,  0|
19,  27,  35, 43,  0,  0|
29,  37,  45,  0,  0,  0|
39,  47,   0,  0,  0,  0|
|];

%data
solutions = {2, 3, 14, 18, 27, 33, 36, 42, 45, 54, 70, 77, 80, 99, 100, 110};
rows=6; 
columns=8; 
r=1;
s=19;  
maxlengthseg= 6; %massima lunghezza dei segmenti